; benchmark generated from python API
(set-info :status unknown)
(declare-datatypes ((RealState 0)) (((RMk1 (rval1 Real)) (RMk2 (rval2 Real)))))
 (assert
 (forall ((|v17:0| Real) )(forall ((|v16:1| Real) )(forall ((|v15:2| Real) )(forall ((|v14:3| Real) )(forall ((|v13:4| Real) )(forall ((|v12:5| Real) )(exists ((|v11:6_st| RealState) (val!9342 Real) )(exists ((|v10:7_st| RealState) (val!9343 Real) )(exists ((|v9:8_st| RealState) (val!9344 Real) )(exists ((|v8:9_st| RealState) (val!9345 Real) )(exists ((|v7:10_st| RealState) (val!9346 Real) )(exists ((|v6:11_st| RealState) (val!9347 Real) )(forall ((|v5:12| Real) )(forall ((|v4:13| Real) )(forall ((|v3:14| Real) )(forall ((|v2:15| Real) )(forall ((|v1:16| Real) )(forall ((|v0:17| Real) )(let ((?x735 (- 13.0)))
 (let ((?x788 (rval2 |v6:11_st|)))
 (let ((?x156 (- 17.0)))
 (let ((?x3031 (* ?x156 ?x788)))
 (let ((?x1091 (+ (+ (+ (* 19.0 (rval2 |v7:10_st|)) (* (- 14.0) |v3:14|)) (* 7.0 |v12:5|)) (* 8.0 (rval2 |v8:9_st|)))))
 (let ((?x4924 (+ (+ (+ ?x1091 ?x3031) (* (- 5.0) |v17:0|)) (* (- 9.0) (rval2 |v9:8_st|)))))
 (let ((?x4508 (* 5.0 |v3:14|)))
 (let ((?x3985 (- 19.0)))
 (let ((?x6989 (* ?x3985 |v3:14|)))
 (let ((?x252 (- 10.0)))
 (let ((?x1898 (* ?x252 |v1:16|)))
 (let ((?x8099 (rval2 |v10:7_st|)))
 (let ((?x9465 (* 12.0 ?x8099)))
 (let ((?x2389 (+ (+ (+ (+ (* ?x156 |v14:3|) (* (- 15.0) |v16:1|)) (* 20.0 |v4:13|)) ?x9465) ?x1898)))
 (let ((?x5872 (* 0.0 |v0:17|)))
 (let ((?x3207 (* 3.0 |v15:2|)))
 (let ((?x1191 (- 16.0)))
 (let ((?x4892 (* ?x1191 |v3:14|)))
 (let ((?x2880 (+ (+ (+ (* (- 1.0) |v1:16|) (* (- 3.0) |v0:17|)) (* ?x252 |v5:12|)) ?x4892)))
 (let ((?x6088 (* ?x156 |v12:5|)))
 (let ((?x1539 (+ (+ (+ (* 16.0 |v2:15|) (* 19.0 |v14:3|)) (* (- 6.0) |v15:2|)) (* (- 7.0) ?x788))))
 (let (($x2823 (<= (+ (+ (+ ?x1539 (* (- 14.0) |v17:0|)) (* 16.0 (rval2 |v9:8_st|))) ?x6088) 10.0)))
 (let (($x1243 (and (or $x2823 (<= (+ (+ (+ ?x2880 ?x3207) ?x5872) (* 15.0 |v15:2|)) 19.0)) (and (<= (+ (+ ?x2389 ?x6989) ?x4508) 13.0) (<= ?x4924 ?x735)))))
 (let ((?x2673 (rval2 |v7:10_st|)))
 (let ((?x920 (* 6.0 ?x2673)))
 (let ((?x4210 (* 16.0 |v1:16|)))
 (let ((?x2882 (* 10.0 |v5:12|)))
 (let ((?x1116 (+ (+ (+ (+ (+ ?x6989 (* 19.0 |v13:4|)) (* (- 11.0) ?x8099)) ?x2882) |v4:13|) ?x4210)))
 (let ((?x8788 (rval2 |v9:8_st|)))
 (let ((?x4357 (* 19.0 ?x8788)))
 (let ((?x7723 (* ?x735 ?x8099)))
 (let ((?x7993 (rval2 |v11:6_st|)))
 (let ((?x3641 (* 17.0 ?x7993)))
 (let ((?x3391 (+ (+ (+ (* (- 2.0) |v4:13|) (* (- 11.0) |v17:0|)) (* ?x252 |v5:12|)) (* (- 8.0) ?x8788))))
 (let (($x8585 (or (<= (+ (+ (+ ?x3391 ?x3641) ?x7723) ?x4357) 12.0) (<= (+ ?x1116 ?x920) ?x252))))
 (let ((?x2201 (* 19.0 |v14:3|)))
 (let ((?x3720 (* 3.0 ?x8788)))
 (let ((?x3698 (* 11.0 ?x8788)))
 (let ((?x9026 (+ (+ (+ (* 3.0 ?x8099) (* 7.0 |v1:16|)) (* 11.0 |v13:4|)) (* 3.0 |v14:3|))))
 (let ((?x2016 (- 14.0)))
 (let ((?x3426 (* ?x2016 |v3:14|)))
 (let ((?x2203 (rval2 |v8:9_st|)))
 (let ((?x1523 (* 0.0 ?x2203)))
 (let ((?x3175 (- 5.0)))
 (let ((?x2581 (* ?x3175 ?x8788)))
 (let ((?x4324 (* ?x252 ?x8099)))
 (let ((?x49 (+ (+ (* (- 3.0) |v0:17|) (* (- 12.0) ?x7993)) (* (- 15.0) ?x2673))))
 (let ((?x4450 (- 18.0)))
 (let ((?x3603 (* 14.0 |v0:17|)))
 (let ((?x3051 (* 15.0 |v14:3|)))
 (let ((?x2656 (* 0.0 |v5:12|)))
 (let ((?x8271 (+ (+ (+ (* 0.0 ?x7993) (* 10.0 |v16:1|)) (* (- 15.0) |v3:14|)) ?x2656)))
 (let (($x4619 (or (<= (+ (+ (+ ?x8271 ?x3051) ?x3603) (* 10.0 |v17:0|)) ?x4450) (<= (+ (+ (+ (+ ?x49 ?x4324) ?x2581) ?x1523) ?x3426) 1.0))))
 (let ((?x7256 (* 5.0 ?x2673)))
 (let ((?x6290 (* ?x735 |v17:0|)))
 (let ((?x1237 (* ?x4450 ?x2203)))
 (let ((?x4426 (* 8.0 |v3:14|)))
 (let ((?x1651 (+ (+ (+ (+ (* 14.0 |v1:16|) (* (- 7.0) |v1:16|)) (* ?x1191 |v14:3|)) ?x4426) ?x1237)))
 (let ((?x2052 (* 10.0 ?x2673)))
 (let ((?x827 (* 14.0 ?x2203)))
 (let ((?x2287 (* ?x4450 |v5:12|)))
 (let ((?x1009 (+ (+ (+ |v17:0| (* 2.0 |v17:0|)) (* 15.0 |v4:13|)) (* (- 3.0) |v14:3|))))
 (let (($x2437 (and (<= (+ (+ (+ ?x1009 ?x2287) ?x827) ?x2052) 20.0) (<= (+ (+ ?x1651 ?x6290) ?x7256) 8.0))))
 (let ((?x6649 (* ?x252 |v0:17|)))
 (let ((?x7768 (* ?x1191 ?x788)))
 (let ((?x1580 (- 1.0)))
 (let ((?x3944 (* ?x1580 |v5:12|)))
 (let ((?x8148 (+ (+ (* 2.0 |v0:17|) (* (- 6.0) |v1:16|)) ?x3944)))
 (let ((?x3248 (* 11.0 ?x2203)))
 (let ((?x8298 (* 3.0 ?x7993)))
 (let ((?x6831 (- 3.0)))
 (let ((?x5038 (* ?x6831 |v4:13|)))
 (let ((?x3777 (+ (+ (+ (* (- 4.0) |v14:3|) (* 13.0 |v13:4|)) (* 13.0 ?x8099)) ?x5038)))
 (let (($x3844 (and (<= (+ (+ (+ ?x3777 ?x8298) |v13:4|) ?x3248) ?x735) (<= (+ (+ (+ (+ ?x8148 ?x7768) ?x6649) |v14:3|) (* 5.0 ?x7993)) 3.0))))
 (let ((?x6905 (- 2.0)))
 (let ((?x3004 (* ?x6905 |v2:15|)))
 (let ((?x277 (* ?x3985 ?x2673)))
 (let ((?x2000 (* ?x6831 |v5:12|)))
 (let ((?x5777 (+ (+ (+ (+ (* 5.0 ?x788) (* 8.0 |v15:2|)) (* ?x252 ?x2203)) ?x2000) ?x277)))
 (let (($x6817 (or (or (<= (+ (+ ?x5777 ?x3004) (* 8.0 ?x2673)) ?x6905) $x3844) (or $x2437 $x4619))))
 (let (($x1546 (and $x6817 (or (and (<= (+ (+ (+ ?x9026 ?x3698) ?x3720) ?x2201) ?x735) $x8585) $x1243))))
 (let ((?x103 (* ?x1580 |v12:5|)))
 (let ((?x7683 (- 11.0)))
 (let ((?x6663 (* ?x7683 |v3:14|)))
 (let ((?x8810 (- 7.0)))
 (let ((?x6307 (* ?x8810 |v2:15|)))
 (let ((?x5734 (+ (+ (+ (+ (+ (* 19.0 |v16:1|) |v13:4|) (* 11.0 ?x8099)) ?x6307) ?x6663) ?x103)))
 (let ((?x7247 (- 20.0)))
 (let ((?x2359 (* ?x7247 ?x7993)))
 (let ((?x2651 (* 6.0 ?x7993)))
 (let ((?x108 (- 12.0)))
 (let ((?x7187 (* ?x108 |v3:14|)))
 (let ((?x5700 (* 0.0 |v4:13|)))
 (let ((?x5620 (+ (+ (+ (+ (* ?x1580 |v15:2|) (* 19.0 ?x7993)) (* ?x7683 ?x7993)) ?x5700) ?x7187)))
 (let ((?x6474 (* 10.0 |v2:15|)))
 (let ((?x7697 (* 18.0 ?x2203)))
 (let ((?x7248 (- 15.0)))
 (let ((?x6986 (* ?x7248 |v3:14|)))
 (let ((?x3007 (+ (+ (+ (+ (* 7.0 |v15:2|) (* 13.0 |v5:12|)) (* 10.0 |v13:4|)) ?x6986) ?x7697)))
 (let (($x8982 (and (<= (+ (+ ?x3007 ?x7697) ?x6474) 8.0) (<= (+ (+ ?x5620 ?x2651) ?x2359) ?x7247))))
 (let ((?x2857 (* ?x3985 |v0:17|)))
 (let ((?x2694 (* 13.0 |v4:13|)))
 (let ((?x4732 (+ (+ (+ (+ (+ (* ?x108 ?x8099) (* ?x735 |v15:2|)) ?x5700) ?x6663) ?x2694) (* (- 9.0) |v17:0|))))
 (let ((?x2631 (* 19.0 |v17:0|)))
 (let ((?x5386 (* 15.0 |v5:12|)))
 (let ((?x3104 (* ?x7248 |v16:1|)))
 (let ((?x4265 (- 4.0)))
 (let ((?x9136 (* ?x4265 ?x8788)))
 (let ((?x5199 (+ (+ (+ (* (- 6.0) |v4:13|) (* 10.0 ?x788)) (* 10.0 |v14:3|)) ?x9136)))
 (let (($x1299 (and (<= (+ (+ (+ ?x5199 ?x3104) ?x5386) ?x2631) 12.0) (<= (+ ?x4732 ?x2857) 17.0))))
 (let ((?x3189 (* 11.0 |v15:2|)))
 (let ((?x2547 (* ?x108 |v16:1|)))
 (let ((?x5982 (+ (+ (+ (+ (+ |v1:16| (* ?x1580 |v13:4|)) |v0:17|) (* ?x7683 |v12:5|)) ?x2547) ?x3189)))
 (let ((?x1478 (* ?x3175 ?x2673)))
 (let ((?x2846 (* ?x6905 |v5:12|)))
 (let ((?x7539 (- 8.0)))
 (let ((?x9127 (* ?x7539 ?x788)))
 (let ((?x7112 (+ (+ (+ (+ (* 8.0 |v12:5|) (* ?x7683 ?x2203)) (* ?x7247 ?x8099)) ?x9127) ?x2846)))
 (let (($x3878 (or (<= (+ (+ ?x7112 ?x3944) ?x1478) ?x6905) (<= (+ ?x5982 (* ?x2016 |v12:5|)) ?x1580))))
 (let (($x766 (or (and $x3878 $x1299) (and $x8982 (<= (+ ?x5734 (* (- 9.0) ?x8099)) 3.0)))))
 (let ((?x1059 (* 9.0 |v2:15|)))
 (let ((?x1983 (* ?x735 |v0:17|)))
 (let ((?x6321 (* 13.0 ?x8788)))
 (let ((?x1261 (+ (+ (+ (+ (* ?x252 |v3:14|) (* 5.0 ?x8788)) (* 15.0 ?x8788)) ?x6321) (* ?x1191 |v13:4|))))
 (let ((?x421 (* ?x7247 |v0:17|)))
 (let ((?x4412 (* 4.0 |v14:3|)))
 (let ((?x4047 (+ (+ (+ (+ (* ?x4450 ?x2673) (* 19.0 |v15:2|)) ?x4324) (* 12.0 ?x788)) (* 19.0 |v12:5|))))
 (let (($x4512 (or (<= (+ (+ ?x4047 ?x4412) ?x421) 9.0) (<= (+ (+ ?x1261 ?x1983) ?x1059) 14.0))))
 (let ((?x4576 (* 10.0 |v13:4|)))
 (let ((?x5116 (- 6.0)))
 (let ((?x6078 (* ?x5116 |v15:2|)))
 (let ((?x3551 (* 14.0 |v16:1|)))
 (let ((?x6693 (* 7.0 |v3:14|)))
 (let ((?x7354 (+ (+ (+ (+ (* 20.0 ?x2673) (* ?x3985 ?x7993)) (* 16.0 ?x2673)) ?x6693) ?x3551)))
 (let ((?x5389 (* ?x7247 |v12:5|)))
 (let ((?x4442 (+ (+ (+ (+ (* ?x156 |v1:16|) |v2:15|) (* 9.0 ?x8788)) (* 2.0 ?x788)) (* 11.0 |v12:5|))))
 (let ((?x861 (* ?x5116 |v14:3|)))
 (let ((?x5190 (* ?x7539 |v3:14|)))
 (let ((?x6780 (* ?x6831 |v3:14|)))
 (let ((?x7440 (+ (+ (+ (* 19.0 |v15:2|) (* ?x252 |v16:1|)) (* 0.0 ?x2673)) (* 7.0 ?x7993))))
 (let (($x4200 (or (<= (+ (+ (+ ?x7440 ?x6780) ?x5190) ?x861) 5.0) (<= (+ (+ ?x4442 (* 0.0 |v14:3|)) ?x5389) 14.0))))
 (let ((?x643 (* ?x1580 ?x788)))
 (let ((?x6417 (- 9.0)))
 (let ((?x3564 (* ?x6417 ?x2203)))
 (let ((?x1572 (+ (+ (+ (+ (* 12.0 |v4:13|) (* 8.0 |v4:13|)) ?x4508) (* ?x3175 |v1:16|)) ?x2656)))
 (let ((?x587 (* ?x3175 |v5:12|)))
 (let ((?x5569 (+ (+ (+ (+ (* 12.0 |v12:5|) (* 9.0 ?x2203)) (* 13.0 |v17:0|)) ?x6321) |v5:12|)))
 (let (($x2278 (or (<= (+ (+ ?x5569 (* ?x4450 ?x7993)) ?x587) 1.0) (<= (+ (+ ?x1572 ?x3564) ?x643) 11.0))))
 (let (($x5868 (or (and (or $x2278 $x4200) (or (<= (+ (+ ?x7354 ?x6078) ?x4576) 1.0) $x4512)) $x766)))
 (let ((?x2529 (* ?x6831 |v12:5|)))
 (let ((?x1075 (* 14.0 |v17:0|)))
 (let ((?x2583 (+ (+ (+ (+ (* ?x6831 |v15:2|) (* 15.0 ?x8788)) (* ?x2016 |v14:3|)) ?x1075) (* ?x4450 |v16:1|))))
 (let ((?x5751 (* 8.0 |v13:4|)))
 (let ((?x3136 (* 17.0 |v15:2|)))
 (let ((?x8347 (* ?x7683 |v4:13|)))
 (let ((?x7596 (+ (+ (+ (+ (* 18.0 |v15:2|) (* 15.0 ?x788)) (* 18.0 |v2:15|)) ?x8347) ?x3136)))
 (let (($x4671 (or (<= (+ (+ ?x7596 |v12:5|) ?x5751) ?x3175) (<= (+ (+ ?x2583 ?x587) ?x2529) ?x3985))))
 (let ((?x1845 (* 4.0 |v17:0|)))
 (let ((?x509 (* ?x6905 |v15:2|)))
 (let ((?x8381 (+ (+ (+ (+ ?x4324 (* 20.0 ?x8099)) (* 19.0 |v4:13|)) (* ?x3985 ?x8788)) ?x509)))
 (let ((?x538 (* 4.0 ?x788)))
 (let ((?x8940 (* 6.0 |v14:3|)))
 (let ((?x6710 (+ (+ (+ (+ ?x4426 (* 16.0 |v17:0|)) (* ?x2016 ?x788)) (* ?x6831 |v1:16|)) ?x8940)))
 (let (($x3517 (or (<= (+ (+ ?x6710 ?x538) |v3:14|) ?x6831) (<= (+ (+ ?x8381 (* ?x5116 ?x7993)) ?x1845) 16.0))))
 (let ((?x1770 (* ?x7248 |v1:16|)))
 (let ((?x1787 (* ?x7539 |v0:17|)))
 (let ((?x2748 (+ (+ (+ (+ (+ |v1:16| (* 2.0 |v3:14|)) ?x2581) (* ?x5116 ?x8099)) ?x1787) ?x6088)))
 (let ((?x3704 (* 3.0 |v1:16|)))
 (let ((?x4141 (+ (+ (+ (+ (+ (* 19.0 ?x2203) ?x3207) (* 13.0 |v13:4|)) ?x4576) ?x3704) (* 6.0 ?x788))))
 (let (($x4535 (and (<= (+ ?x4141 (* 13.0 ?x788)) 17.0) (<= (+ ?x2748 ?x1770) 16.0))))
 (let ((?x2815 (* 2.0 ?x7993)))
 (let ((?x6109 (* ?x6905 |v4:13|)))
 (let ((?x1330 (+ (+ (+ (+ (+ (* 15.0 |v17:0|) ?x7256) (* 20.0 ?x788)) ?x2694) ?x6109) |v4:13|)))
 (let ((?x3308 (* ?x2016 |v1:16|)))
 (let ((?x7906 (* ?x6417 ?x2673)))
 (let ((?x5006 (* ?x1191 |v14:3|)))
 (let ((?x542 (+ (+ (+ (+ (+ ?x2656 (* ?x8810 |v4:13|)) ?x277) (* ?x7683 |v16:1|)) ?x5006) ?x7906)))
 (let (($x3059 (and (or (and (<= (+ ?x542 ?x3308) ?x252) (<= (+ ?x1330 ?x2815) ?x7247)) $x4535) (and $x3517 $x4671))))
 (let ((?x4639 (* 9.0 |v4:13|)))
 (let ((?x7605 (* ?x4450 |v15:2|)))
 (let ((?x3236 (* 10.0 |v16:1|)))
 (let ((?x379 (+ (+ (+ (* 20.0 |v16:1|) (* ?x3175 |v3:14|)) (* ?x252 |v14:3|)) (* ?x7683 |v15:2|))))
 (let ((?x4015 (* 2.0 |v2:15|)))
 (let ((?x4659 (* ?x6831 ?x7993)))
 (let ((?x4085 (+ (+ (+ (+ ?x6307 (* ?x3985 |v13:4|)) (* 18.0 |v17:0|)) (* 5.0 ?x8788)) ?x4659)))
 (let (($x1432 (or (<= (+ (+ ?x4085 (* 6.0 |v12:5|)) ?x4015) ?x1580) (<= (+ (+ (+ ?x379 ?x3236) ?x7605) ?x4639) ?x8810))))
 (let ((?x4369 (* ?x5116 |v1:16|)))
 (let ((?x7918 (* ?x3985 ?x8788)))
 (let ((?x3168 (+ (+ (+ (+ (* 4.0 |v15:2|) (* 3.0 ?x2203)) ?x6109) (* ?x2016 ?x8099)) ?x7918)))
 (let ((?x2703 (* 16.0 |v4:13|)))
 (let ((?x2960 (* 18.0 |v2:15|)))
 (let ((?x2465 (* ?x7248 |v4:13|)))
 (let ((?x8032 (+ (+ (+ (+ (* ?x6831 |v0:17|) ?x6780) (* 5.0 |v1:16|)) (* 13.0 ?x2203)) ?x2465)))
 (let (($x4299 (or (<= (+ (+ ?x8032 ?x2960) ?x2703) ?x7683) (<= (+ (+ ?x3168 ?x4369) (* ?x4265 |v17:0|)) ?x108))))
 (let ((?x4945 (* ?x4450 |v13:4|)))
 (let ((?x6873 (* ?x735 |v12:5|)))
 (let ((?x1183 (+ (+ (+ (+ (+ ?x7906 (* 14.0 ?x7993)) ?x9136) (* ?x6417 |v12:5|)) ?x6873) ?x4945)))
 (let ((?x479 (* 18.0 |v12:5|)))
 (let ((?x8744 (* ?x6831 |v2:15|)))
 (let ((?x1369 (+ (+ (+ (+ (* 7.0 |v1:16|) (* 2.0 |v3:14|)) ?x8347) (* ?x156 |v16:1|)) ?x3564)))
 (let ((?x8502 (* ?x4265 |v15:2|)))
 (let ((?x7552 (+ (+ (+ (+ ?x7993 (* ?x735 |v2:15|)) (* ?x156 |v1:16|)) (* ?x1580 ?x8099)) ?x8502)))
 (let (($x7857 (and (<= (+ (+ ?x7552 (* 13.0 |v12:5|)) (* 12.0 ?x2673)) ?x4450) (<= (+ (+ ?x1369 ?x8744) ?x479) ?x5116))))
 (let ((?x1409 (* 13.0 ?x2203)))
 (let ((?x241 (* 13.0 |v13:4|)))
 (let ((?x8588 (* ?x735 |v5:12|)))
 (let ((?x8205 (+ (+ (+ (+ (* 9.0 ?x8788) (* ?x4265 |v14:3|)) (* ?x156 ?x2673)) ?x8588) (* ?x7247 ?x788))))
 (let ((?x7078 (* ?x3985 ?x788)))
 (let ((?x4765 (* 0.0 ?x7993)))
 (let ((?x3624 (* ?x4450 ?x2673)))
 (let ((?x6692 (+ (+ (+ (+ ?x8298 (* 11.0 |v5:12|)) (* 2.0 |v12:5|)) (* 6.0 |v3:14|)) ?x3624)))
 (let (($x9186 (and (<= (+ (+ ?x6692 ?x4765) ?x7078) 1.0) (<= (+ (+ ?x8205 ?x241) ?x1409) ?x1580))))
 (let ((?x4911 (* ?x7539 ?x7993)))
 (let ((?x8251 (+ (+ (+ (+ (* 5.0 |v5:12|) ?x5389) (* ?x7683 ?x2203)) (* 4.0 |v16:1|)) ?x538)))
 (let ((?x5218 (* 16.0 |v0:17|)))
 (let ((?x4396 (* 9.0 |v0:17|)))
 (let ((?x9009 (* 9.0 |v3:14|)))
 (let ((?x6080 (+ (+ (+ (+ (* ?x6831 |v16:1|) (* 3.0 |v16:1|)) (* ?x4450 |v4:13|)) ?x9009) ?x5190)))
 (let (($x8530 (and (<= (+ (+ ?x6080 ?x4396) ?x5218) 16.0) (<= (+ (+ ?x8251 ?x4911) (* ?x2016 |v16:1|)) ?x7539))))
 (let ((?x5501 (* 7.0 |v1:16|)))
 (let ((?x1020 (+ (+ (+ (+ (* 4.0 ?x2203) (* ?x6905 ?x788)) ?x5006) (* ?x6417 |v12:5|)) |v16:1|)))
 (let ((?x7569 (* 9.0 |v16:1|)))
 (let ((?x3865 (* 5.0 ?x2203)))
 (let ((?x9063 (* 0.0 |v3:14|)))
 (let ((?x2343 (* 16.0 |v3:14|)))
 (let ((?x1997 (+ (+ (+ (+ (* 4.0 |v3:14|) (* 7.0 |v14:3|)) (* 8.0 ?x7993)) ?x2343) ?x9063)))
 (let (($x1550 (or (<= (+ (+ ?x1997 ?x3865) ?x7569) 20.0) (<= (+ (+ ?x1020 ?x8099) ?x5501) 3.0))))
 (let ((?x1837 (* ?x3985 ?x7993)))
 (let ((?x1645 (* ?x6417 |v14:3|)))
 (let ((?x9046 (+ (+ (+ (+ (* 5.0 |v2:15|) (* ?x108 |v5:12|)) ?x2673) (* ?x3985 |v14:3|)) ?x1645)))
 (let ((?x2314 (* 19.0 |v5:12|)))
 (let ((?x1914 (+ (+ (+ (+ (* 11.0 |v13:4|) (* ?x1191 ?x8099)) (* ?x8810 |v1:16|)) ?x2314) ?x3641)))
 (let (($x8640 (or (<= (+ (+ ?x1914 ?x2882) ?x4357) ?x7539) (<= (+ (+ ?x9046 ?x7918) ?x1837) ?x6905))))
 (let ((?x9470 (* 7.0 ?x8788)))
 (let ((?x7496 (* 15.0 |v16:1|)))
 (let ((?x3206 (* ?x3175 |v1:16|)))
 (let ((?x7484 (+ (+ (+ (+ (+ ?x7768 ?x421) (* 0.0 |v1:16|)) (* ?x7248 ?x2203)) ?x3206) ?x7496)))
 (let ((?x6909 (* 19.0 |v3:14|)))
 (let ((?x702 (* 9.0 ?x788)))
 (let ((?x5258 (+ (+ (+ (+ (* 7.0 |v16:1|) (* ?x8810 |v13:4|)) (* ?x3175 |v12:5|)) ?x1523) ?x702)))
 (let (($x1449 (and (<= (+ (+ ?x5258 (* ?x8810 ?x8788)) ?x6909) ?x6905) (<= (+ ?x7484 ?x9470) ?x7539))))
 (let ((?x7303 (* 19.0 ?x8099)))
 (let ((?x6647 (+ (+ (+ (+ (+ (* 18.0 |v17:0|) ?x6088) ?x4945) (* 11.0 |v5:12|)) ?x7303) ?x6873)))
 (let ((?x6796 (* ?x108 |v5:12|)))
 (let ((?x4819 (* ?x7683 |v0:17|)))
 (let ((?x5922 (* 12.0 |v4:13|)))
 (let ((?x499 (+ (+ (+ (+ (* 19.0 ?x2673) (* 4.0 |v0:17|)) (* ?x108 ?x788)) ?x5922) (* ?x6417 ?x788))))
 (let (($x36 (or (<= (+ (+ ?x499 ?x4819) ?x6796) 19.0) (<= (+ ?x6647 (* ?x2016 ?x2673)) 19.0))))
 (let ((?x8651 (* 19.0 |v4:13|)))
 (let ((?x5943 (* ?x156 |v2:15|)))
 (let ((?x1650 (* 15.0 ?x2673)))
 (let ((?x4620 (+ (+ (+ (+ (+ ?x2359 ?x2651) (* 6.0 |v0:17|)) (* ?x3985 ?x2203)) ?x1650) ?x5943)))
 (let ((?x1206 (* ?x7539 |v15:2|)))
 (let ((?x6057 (* ?x1580 |v3:14|)))
 (let ((?x5088 (+ (+ (+ (+ (* 17.0 |v0:17|) (* 0.0 |v2:15|)) (* 18.0 |v13:4|)) ?x6057) ?x2052)))
 (let (($x4757 (and (<= (+ (+ ?x5088 ?x1206) (* 12.0 ?x8788)) ?x7247) (<= (+ ?x4620 ?x8651) 17.0))))
 (let (($x4359 (or (and (or $x4757 $x36) (and $x1449 $x8640)) (or (or $x1550 $x8530) (or $x9186 $x7857)))))
 (let (($x1447 (or $x4359 (or (and (<= (+ ?x1183 (* 17.0 ?x8788)) ?x5116) (and $x4299 $x1432)) $x3059))))
 (let ((?x9116 (* ?x4265 |v16:1|)))
 (let ((?x6846 (+ (+ (+ (+ (+ (* 7.0 |v12:5|) ?x9116) ?x9470) ?x2631) (* ?x7247 ?x2203)) ?x4396)))
 (let ((?x4956 (* 18.0 |v3:14|)))
 (let ((?x5797 (+ (+ (+ (+ (* ?x6905 |v13:4|) ?x7303) (* ?x5116 |v13:4|)) (* ?x6905 |v0:17|)) ?x4956)))
 (let ((?x7088 (* ?x156 |v1:16|)))
 (let ((?x6419 (* ?x7248 |v5:12|)))
 (let ((?x3964 (+ (+ (+ (+ (+ (* ?x108 |v1:16|) ?x7605) ?x1837) (* 2.0 |v12:5|)) ?x6419) ?x7088)))
 (let (($x7153 (and (<= (+ ?x3964 (* ?x6417 ?x7993)) 1.0) (<= (+ (+ ?x5797 (* 2.0 ?x8099)) ?x9127) ?x2016))))
 (let ((?x4833 (* 12.0 |v12:5|)))
 (let ((?x708 (* ?x108 |v1:16|)))
 (let ((?x1788 (* 7.0 |v2:15|)))
 (let ((?x4342 (+ (+ (+ (+ (* ?x8810 |v12:5|) (* 13.0 |v5:12|)) (* ?x1580 |v4:13|)) ?x1788) ?x708)))
 (let ((?x7797 (* 8.0 |v0:17|)))
 (let ((?x8404 (* ?x3985 |v1:16|)))
 (let ((?x5383 (* 3.0 |v2:15|)))
 (let ((?x725 (+ (+ (+ (+ (* ?x7248 |v14:3|) (* 18.0 ?x8099)) ?x861) (* ?x4265 |v0:17|)) ?x5383)))
 (let (($x6577 (or (<= (+ (+ ?x725 ?x8404) ?x7797) ?x156) (<= (+ (+ ?x4342 ?x4833) ?x3004) ?x6905))))
 (let ((?x2627 (* 14.0 |v5:12|)))
 (let ((?x392 (+ (+ (+ (+ (* ?x6417 |v16:1|) ?x4911) (* ?x3985 |v17:0|)) (* ?x7247 ?x2673)) ?x2627)))
 (let ((?x2084 (* 20.0 |v5:12|)))
 (let ((?x6730 (+ (+ (+ (+ (* ?x3985 |v13:4|) (* 5.0 ?x8099)) ?x8502) (* 17.0 |v16:1|)) ?x2084)))
 (let (($x3275 (and (<= (+ (+ ?x6730 (* 0.0 |v17:0|)) (* ?x3175 |v14:3|)) ?x8810) (<= (+ (+ ?x392 (* 2.0 ?x2673)) ?x7918) ?x3175))))
 (let ((?x3955 (* ?x4265 |v14:3|)))
 (let ((?x4799 (* 5.0 |v13:4|)))
 (let ((?x3199 (+ (+ (+ (+ (* 11.0 ?x2673) (* ?x7247 ?x8099)) (* 16.0 |v14:3|)) ?x4799) (* ?x8810 |v14:3|))))
 (let ((?x1143 (* ?x108 |v2:15|)))
 (let ((?x5275 (* ?x5116 |v13:4|)))
 (let ((?x3232 (+ (+ (+ (+ (+ ?x1983 (* ?x7247 |v1:16|)) ?x3426) (* 3.0 |v12:5|)) ?x5275) ?x1143)))
 (let ((?x7812 (* ?x7247 |v3:14|)))
 (let ((?x3867 (* 19.0 |v0:17|)))
 (let ((?x7161 (* 16.0 ?x788)))
 (let ((?x4231 (+ (+ (+ (+ ?x3698 (* 20.0 ?x2673)) (* ?x252 ?x2673)) (* 5.0 |v16:1|)) ?x7161)))
 (let ((?x3378 (* 5.0 ?x788)))
 (let ((?x6709 (* 19.0 |v1:16|)))
 (let ((?x9020 (+ (+ (+ (+ (+ (+ ?x3236 |v0:17|) ?x509) (* 12.0 |v14:3|)) ?x6290) ?x6709) ?x3378)))
 (let (($x3420 (or (and (<= ?x9020 8.0) (<= (+ (+ ?x4231 ?x3867) ?x7812) 11.0)) (and (<= (+ ?x3232 ?x5218) ?x7248) (<= (+ (+ ?x3199 ?x1788) ?x3955) 18.0)))))
 (let ((?x4251 (* ?x6417 |v0:17|)))
 (let ((?x1830 (+ (+ (+ (+ (+ (* ?x4450 |v3:14|) ?x3308) ?x920) (* 15.0 ?x2203)) ?x4251) (* ?x6831 ?x2203))))
 (let ((?x2607 (* 4.0 ?x2203)))
 (let ((?x8391 (* ?x252 |v16:1|)))
 (let ((?x1906 (+ (+ (+ (+ (+ ?x1075 (* ?x7247 |v5:12|)) (* ?x4450 |v3:14|)) ?x6780) ?x1478) ?x8391)))
 (let ((?x2496 (* ?x5116 ?x8099)))
 (let ((?x4459 (* ?x108 ?x7993)))
 (let ((?x5782 (* 12.0 |v2:15|)))
 (let ((?x8031 (* ?x7247 |v4:13|)))
 (let ((?x191 (+ (+ (+ (+ (* ?x252 |v14:3|) (* 7.0 |v0:17|)) (* ?x1191 |v4:13|)) ?x8031) ?x5782)))
 (let (($x4511 (or (<= (+ (+ ?x191 ?x4459) ?x2496) 11.0) (and (<= (+ ?x1906 ?x2607) 17.0) (<= (+ ?x1830 ?x3720) ?x156)))))
 (let (($x1343 (and (or $x4511 $x3420) (and (and $x3275 $x6577) (and $x7153 (<= (+ ?x6846 ?x9116) 1.0))))))
 (let ((?x2808 (* 0.0 |v1:16|)))
 (let ((?x466 (* ?x252 |v4:13|)))
 (let ((?x2650 (+ (+ (+ (+ (* 20.0 |v3:14|) (* ?x8810 ?x7993)) (* 14.0 ?x2673)) ?x466) ?x2808)))
 (let ((?x3471 (* 16.0 |v14:3|)))
 (let ((?x5438 (* ?x6417 |v5:12|)))
 (let ((?x8919 (+ (+ (+ (+ (+ ?x4892 (* 3.0 |v16:1|)) (* 18.0 ?x7993)) ?x1788) ?x5438) ?x3471)))
 (let (($x5792 (or (<= (+ ?x8919 ?x2651) ?x7248) (<= (+ (+ ?x2650 (* ?x6831 |v13:4|)) ?x7078) ?x4450))))
 (let ((?x3131 (* 4.0 |v16:1|)))
 (let ((?x405 (* ?x1580 ?x8099)))
 (let ((?x7777 (* ?x156 |v3:14|)))
 (let ((?x8501 (* 4.0 |v2:15|)))
 (let ((?x3264 (+ (+ (+ (+ (* 8.0 |v16:1|) (* ?x8810 ?x2203)) (* ?x1191 |v4:13|)) ?x8501) ?x7777)))
 (let ((?x8539 (* ?x4450 |v1:16|)))
 (let ((?x2211 (* ?x6417 |v2:15|)))
 (let ((?x854 (* 18.0 ?x7993)))
 (let ((?x3339 (+ (+ (+ (+ (* ?x6905 ?x788) (* 4.0 ?x7993)) (* 4.0 ?x8788)) ?x854) ?x2211)))
 (let (($x1232 (and (<= (+ (+ ?x3339 ?x8539) (* ?x108 |v15:2|)) ?x6417) (<= (+ (+ ?x3264 ?x405) ?x3131) ?x156))))
 (let ((?x4268 (* 20.0 |v3:14|)))
 (let ((?x1665 (* 9.0 ?x2203)))
 (let ((?x2247 (+ (+ (+ (+ (+ (* 20.0 |v16:1|) (* ?x108 |v4:13|)) ?x2627) ?x7697) ?x1665) ?x4268)))
 (let ((?x6834 (* ?x735 ?x8788)))
 (let ((?x5602 (+ (+ (+ (+ (+ ?x2547 ?x4765) (* 15.0 |v4:13|)) (* ?x7247 |v1:16|)) ?x6834) ?x7187)))
 (let ((?x6895 (* ?x735 |v4:13|)))
 (let ((?x8113 (* 8.0 ?x7993)))
 (let ((?x8219 (+ (+ (+ (+ (* ?x156 ?x7993) ?x9470) ?x1059) (* 3.0 |v3:14|)) (* ?x2016 |v15:2|))))
 (let ((?x5229 (* ?x5116 ?x8788)))
 (let ((?x1975 (* 11.0 |v13:4|)))
 (let ((?x974 (+ (+ (+ (+ (* ?x7683 ?x7993) ?x8744) (* 18.0 |v14:3|)) (* 9.0 ?x7993)) (* ?x7683 ?x788))))
 (let (($x2985 (or (<= (+ (+ ?x974 ?x1975) ?x5229) ?x2016) (<= (+ (+ ?x8219 ?x8113) ?x6895) 11.0))))
 (let ((?x5269 (+ (+ (+ (+ (+ ?x3564 ?x861) ?x6290) (* 13.0 ?x2673)) (* 17.0 |v5:12|)) (* ?x252 ?x8788))))
 (let ((?x6028 (+ (+ (+ (+ (+ (+ |v4:13| ?x2846) (* 11.0 ?x7993)) ?x8502) ?x4251) ?x4956) (* 20.0 ?x7993))))
 (let (($x889 (and (or (or (<= ?x6028 0.0) (<= (+ ?x5269 ?x6834) ?x8810)) $x2985) (and (or (<= (+ ?x5602 ?x1770) 19.0) (<= (+ ?x2247 ?x5782) 13.0)) $x1232))))
 (let ((?x5441 (* ?x3985 |v15:2|)))
 (let ((?x6344 (* 14.0 ?x8099)))
 (let ((?x354 (+ (+ (+ (+ (* 0.0 ?x8099) (* ?x7539 |v1:16|)) (* 6.0 ?x8788)) ?x6344) ?x7812)))
 (let ((?x8983 (* 3.0 ?x788)))
 (let ((?x6823 (+ (+ (+ (+ (+ (+ |v0:17| ?x3248) ?x7993) (* ?x4450 ?x8788)) ?x6663) ?x8983) ?x6321)))
 (let ((?x3977 (* 6.0 ?x2203)))
 (let ((?x6425 (* 13.0 |v15:2|)))
 (let ((?x5002 (* 16.0 |v17:0|)))
 (let ((?x5180 (+ (+ (+ (+ (* ?x1580 |v14:3|) (* ?x6831 ?x788)) (* 7.0 |v12:5|)) ?x5002) ?x6425)))
 (let ((?x3215 (* 4.0 ?x7993)))
 (let ((?x6769 (* 11.0 |v1:16|)))
 (let ((?x4397 (+ (+ (+ (+ ?x3236 (* ?x5116 |v3:14|)) (* ?x156 |v15:2|)) (* ?x3175 ?x8099)) ?x6769)))
 (let (($x1266 (and (<= (+ (+ ?x4397 ?x3215) ?x5006) ?x3175) (<= (+ (+ ?x5180 ?x1206) ?x3977) ?x1580))))
 (let ((?x952 (* ?x735 |v15:2|)))
 (let ((?x1867 (+ (+ (+ (+ (* ?x7247 |v16:1|) (* 11.0 |v0:17|)) ?x3031) (* 7.0 ?x8099)) ?x3426)))
 (let ((?x7546 (* ?x1580 |v14:3|)))
 (let ((?x3926 (* 11.0 ?x7993)))
 (let ((?x8114 (+ (+ (* ?x4265 |v0:17|) (* 20.0 |v2:15|)) (* ?x6905 |v3:14|))))
 (let (($x1158 (or (<= (+ (+ (+ (+ ?x8114 ?x3926) ?x7546) ?x5441) (* ?x7248 ?x788)) 11.0) (<= (+ (+ ?x1867 (* 10.0 |v15:2|)) ?x952) 11.0))))
 (let (($x7357 (or (or $x1158 $x1266) (and (<= ?x6823 ?x4265) (<= (+ (+ ?x354 (* ?x4450 ?x8099)) ?x5441) ?x2016)))))
 (let ((?x3143 (* 9.0 |v15:2|)))
 (let ((?x4417 (+ (+ (+ (+ ?x3720 (* 13.0 ?x2673)) ?x3977) (* 12.0 |v3:14|)) (* ?x1580 |v17:0|))))
 (let ((?x5842 (* 4.0 |v0:17|)))
 (let ((?x2997 (+ (+ (+ (+ (+ (* 10.0 ?x8099) ?x5386) (* ?x252 ?x2673)) ?x643) ?x5441) ?x5842)))
 (let ((?x7653 (* 3.0 ?x2203)))
 (let ((?x1187 (+ (+ (+ (+ (+ (* ?x4265 |v0:17|) ?x4659) (* ?x6905 ?x7993)) ?x5218) ?x3004) ?x7653)))
 (let ((?x4343 (* ?x3985 |v17:0|)))
 (let ((?x117 (+ (+ (+ (+ (+ ?x5229 ?x3189) (* 5.0 |v0:17|)) ?x2857) (* 0.0 ?x8099)) ?x1237)))
 (let (($x4382 (or (and (<= (+ ?x117 ?x4343) ?x7247) (<= (+ ?x1187 (* ?x1191 |v16:1|)) ?x1580)) (and (<= (+ ?x2997 ?x6290) 13.0) (<= (+ (+ ?x4417 ?x3051) ?x3143) ?x3985)))))
 (let ((?x5675 (* 15.0 |v2:15|)))
 (let ((?x5077 (* 20.0 |v1:16|)))
 (let ((?x1072 (* ?x6417 |v1:16|)))
 (let ((?x2469 (+ (+ (+ (+ (+ ?x103 (* 13.0 |v0:17|)) (* 17.0 |v4:13|)) ?x1645) ?x1072) ?x5077)))
 (let ((?x1940 (* 8.0 |v5:12|)))
 (let ((?x1964 (+ (+ (+ (+ (* 7.0 |v17:0|) (* ?x108 ?x8788)) ?x7187) (* 17.0 |v2:15|)) ?x1940)))
 (let (($x9386 (or (<= (+ (+ ?x1964 (* ?x108 |v13:4|)) ?x5229) ?x5116) (<= (+ ?x2469 ?x5675) ?x7683))))
 (let ((?x8247 (* 18.0 ?x8788)))
 (let ((?x7830 (+ (+ (+ (+ (* ?x6905 ?x2673) (* 9.0 |v13:4|)) (* 8.0 ?x8788)) ?x2529) ?x8247)))
 (let ((?x3491 (+ (+ (+ (+ ?x8113 (* 17.0 |v1:16|)) (* ?x4450 |v12:5|)) ?x7918) (* ?x4265 |v13:4|))))
 (let (($x8149 (and (<= (+ (+ ?x3491 ?x7812) (* ?x7683 ?x8788)) 12.0) (<= (+ (+ ?x7830 (* ?x3175 |v15:2|)) ?x7918) 8.0))))
 (let ((?x432 (+ (+ (+ (+ ?x8502 (* 18.0 |v5:12|)) (* ?x7539 |v13:4|)) (* 5.0 |v5:12|)) ?x405)))
 (let (($x4560 (and (<= (+ (+ ?x432 ?x7723) (* 16.0 |v15:2|)) 20.0) (or (or (or $x8149 $x9386) $x4382) $x7357))))
 (let (($x4184 (not (= |v6:11_st| (RMk1 val!9347)))))
 (let (($x3947 (not (= |v7:10_st| (RMk1 val!9346)))))
 (let (($x3746 (not (= |v8:9_st| (RMk1 val!9345)))))
 (let (($x3505 (not (= |v9:8_st| (RMk1 val!9344)))))
 (let (($x1202 (not (= |v10:7_st| (RMk1 val!9343)))))
 (let (($x2351 (not (= |v11:6_st| (RMk1 val!9342)))))
 (and $x2351 $x1202 $x3505 $x3746 $x3947 $x4184 (and (or $x4560 (and (or $x889 $x5792) $x1343)) (or $x1447 (or $x5868 $x1546)))))))))))))))))))))))))))))))))))))))))))))))))))))))))))))))))))))))))))))))))))))))))))))))))))))))))))))))))))))))))))))))))))))))))))))))))))))))))))))))))))))))))))))))))))))))))))))))))))))))))))))))))))))))))))))))))))))))))))))))))))))))))))))))))))))))))))))))))))))))))))))))))))))))))))))))))))))))))))))))))))))))))))))))))))))))))))))))))))))))))))))))))))))))))))))))))))))))
 )
 )
 )
 )
 )
 )
 )
 )
 )
 )
 )
 )
 )
 )
 )
 )
 )
 )
(check-sat)
